718,643
817,673
839,624
947,599
708,459
923,230
653,397
575,512
487,265
910,91
975,257
1095,341
702,385
491,780
817,673
839,624
1194,240
1101,406
1066,467
711,406
598,662
718,643
512,529
396,498
387,257
441,284
723,140
975,257
1101,406
729,371
487,265
293,124
778,336
729,371
702,385
